solution status: time limit reached
objective value:                             -563.326
x45                                                 1 	(obj:-10)
x140                                                1 	(obj:-16.2)
x143                                                1 	(obj:-16.2)
x333                                                1 	(obj:-27.4)
x358                                                1 	(obj:-18)
x453                                                1 	(obj:-35)
x518                                                1 	(obj:-4.114)
x704                                                1 	(obj:-21)
x714                                                1 	(obj:-18.6)
x803                                                1 	(obj:-20)
x900                                                1 	(obj:-25)
x1055                                               1 	(obj:-30)
x1178                                               1 	(obj:-9.6)
x1206                                               1 	(obj:-30)
x1343                                               1 	(obj:-16.4)
x1421                                               1 	(obj:-36)
x1635                                               1 	(obj:-24)
x1640                                               1 	(obj:-12)
x1750                                               1 	(obj:-5.68)
x1896                                               1 	(obj:-21)
x1922                                               1 	(obj:-18)
x2048                                               1 	(obj:-10)
x2049                                               1 	(obj:-10)
x2198                                               1 	(obj:-9.262)
x2234                                               1 	(obj:-35)
x2317                                               1 	(obj:-11.92)
x2345                                               1 	(obj:-20)
x2462                                               1 	(obj:-29)
x2531                                               1 	(obj:-30)
x2580                                               1 	(obj:-26)
x2699                                               1 	(obj:-19.8)
x2711                                               1 	(obj:-19.8)
x2717                                               1 	(obj:-17.8)
x2776                                               1 	(obj:-19.8)
x2784                                               1 	(obj:-19.8)
x2786                                               1 	(obj:-19.8)
x2810                                               1 	(obj:-24)
x2816                                               1 	(obj:-40)
x2829                                               1 	(obj:-40)
x2838                                               1 	(obj:-11.2)
x2843                                               1 	(obj:-11.2)
x2844                                               1 	(obj:-10)
x2845                                               1 	(obj:-10)
x2850                                               1 	(obj:-40)
x2868                                               1 	(obj:-20)
x2872                                               1 	(obj:-30)
x2884                                               1 	(obj:-33)
x2886                                               1 	(obj:-33)
x2887                                               1 	(obj:-10)
x2900                                               1 	(obj:-16.8)
x2901                                               1 	(obj:-16.4)
x2902                                               1 	(obj:-16.8)
x2903                                               1 	(obj:-16.8)
x2909                                               1 	(obj:-30)
x2910                                               1 	(obj:-23.8)
x2916                                               1 	(obj:-30)
x2918                                               1 	(obj:-30)
x2923                                               1 	(obj:21.2)
x2924                                               1 	(obj:22.74)
x2925                                               1 	(obj:19.56)
x2926                                               1 	(obj:19.83)
x2927                                               1 	(obj:22.57)
x2928                                               1 	(obj:19.83)
x2929                                               1 	(obj:23.22)
x2930                                               1 	(obj:18.08)
x2931                                               1 	(obj:20.88)
x2932                                               1 	(obj:19.71)
x2933                                               1 	(obj:14.67)
x2934                                               1 	(obj:23.46)
x2935                                               1 	(obj:24.58)
x2936                                               1 	(obj:28.05)
x2937                                               1 	(obj:28.72)
x2938                                               1 	(obj:29.71)
x2939                                               1 	(obj:32.13)
x2940                                               1 	(obj:33.88)
x2941                                               1 	(obj:36.15)
x2942                                               1 	(obj:37.42)
x2943                                               1 	(obj:38.31)
x2944                                               1 	(obj:34.18)
x2945                                               1 	(obj:36.37)
x2946                                               1 	(obj:36.6)
x2987                                               1 	(obj:0)
x3054                                               1 	(obj:0)
x3205                                               1 	(obj:0)
x3222                                               1 	(obj:0)
x3298                                               1 	(obj:0)
x3407                                               1 	(obj:0)
x3476                                               1 	(obj:0)
x3560                                               1 	(obj:0)
x3592                                               1 	(obj:0)
x3730                                               1 	(obj:0)
x3790                                               1 	(obj:0)
x3842                                               1 	(obj:0)
x3908                                               1 	(obj:0)
x3987                                               1 	(obj:0)
x4095                                               1 	(obj:0)
x4309                                               1 	(obj:0)
x4329                                               1 	(obj:0)
x4466                                               1 	(obj:0)
x4550                                               1 	(obj:0)
x4611                                               1 	(obj:0)
x4671                                               1 	(obj:0)
x4767                                               1 	(obj:0)
x4852                                               1 	(obj:0)
x4864                                               1 	(obj:0)
x4925                                               1 	(obj:0)
x5018                                               1 	(obj:0)
x5049                                               1 	(obj:0)
x5129                                               1 	(obj:0)
x5139                                               1 	(obj:0)
x5202                                               1 	(obj:0)
x5210                                               1 	(obj:0)
x5231                                               1 	(obj:0)
x5234                                               1 	(obj:0)
x5246                                               1 	(obj:0)
x5252                                               1 	(obj:0)
x5258                                               1 	(obj:0)
x5260                                               1 	(obj:0)
x5280                                               1 	(obj:0)
x5288                                               1 	(obj:0)
x5293                                               1 	(obj:0)
x5298                                               1 	(obj:0)
x5304                                               1 	(obj:0)
x5305                                               1 	(obj:0)
x5312                                               1 	(obj:0)
x5318                                               1 	(obj:0)
x5319                                               1 	(obj:0)
x5320                                               1 	(obj:0)
x2948                                39.2620000000001 	(obj:0)
x2947                                         602.588 	(obj:0)
